(set-logic QF_BV)
(declare-fun x0 () (_ BitVec 8))
(declare-fun x1 () Bool)
(declare-fun x2 () (_ BitVec 32))
(declare-fun x3 () (_ BitVec 8))
(declare-fun x4 () Bool)
(declare-fun x5 () Bool)
(assert (let ((?v_22 ((_ zero_extend 24) x0)) (?v_10 ((_ zero_extend 24) x3))) (let ((?v_12 (bvadd x2 ?v_10))) (let ((?v_16 (bvadd (bvadd ?v_12 (_ bv0 32)) (_ bv0 32)))) (let ((?v_1 (bvsub (bvadd (bvadd ?v_16 (_ bv0 32)) (_ bv0 32)) (_ bv4285383 32)))) (let ((?v_23 (bvsub (bvadd (_ bv0 32) ?v_22) (_ bv1 32))) (?v_24 (bvadd ?v_1 (_ bv4285434 32)))) (and true (bvult (bvadd ?v_1 (_ bv4285435 32)) ?v_23) true x1 true x5 true (bvule ?v_23 ?v_24) x4)))))))
(check-sat)
(exit)
